letting n =  10
letting blocks =  [[1, 2], [1, 3], [1, 4], [1, 6], [1, 8], [1, 10], [2, 1], [2, 3], [2, 5], [2, 6], [2, 7], [2, 10], [3, 3], [3, 4], [3, 7], [3, 8], [3, 9], [4, 2], [4, 3], [4, 5], [4, 7], [4, 8], [5, 1], [5, 6], [5, 8], [5, 9], [5, 10], [6, 1], [6, 2], [6, 3], [6, 4], [6, 6], [6, 8], [7, 2], [7, 4], [7, 5], [7, 7], [7, 8], [7, 9], [8, 1], [8, 4], [8, 5], [8, 9], [8, 10], [9, 1], [9, 2], [9, 3], [9, 5], [9, 6], [9, 9], [10, 1], [10, 2], [10, 4], [10, 6], [10, 7], [10, 9]]
